/*********************************************
 * OPL 12.9.0.0 Data
 * Author: Windows
 * Creation Date: 19 Mar 2019 at 10:45:16
 *********************************************/
n=6;
s=1;
t=6;

//Arretes={<1,2>,<1,4>,<1,5>,<2,3>,<2,5>,<3,5>,<3,7>,<4,5>,<4,6>,<5,6>,<5,7>,<6,8>,<7,8>};
//duree=[2 5 7 9 4 4 6 3 4 3 4 5 3];


Arretes={<1,2>,<1,3>,<1,4>,<1,5>,<2,3>,<2,6>,<3,4>,<3,6>,<4,3>,<4,5>,<4,6>,<5,6>};
duree=[4 8 2 24 2 2 2 6 1 4 12 6];
cout=[3 3 4 2 10 13 0 5 6 6 9];